
******************************************************************************
This program contains Ipopt, a library for large-scale nonlinear optimization.
 Ipopt is released as open source code under the Eclipse Public License (EPL).
         For more information visit http://projects.coin-or.org/Ipopt

This version of Ipopt was compiled from source code available at
    https://github.com/IDAES/Ipopt as part of the Institute for the Design of
    Advanced Energy Systems Process Systems Engineering Framework (IDAES PSE
    Framework) Copyright (c) 2018-2019. See https://github.com/IDAES/idaes-pse.

This version of Ipopt was compiled using HSL, a collection of Fortran codes
    for large-scale scientific computation.  All technical papers, sales and
    publicity material resulting from use of the HSL codes within IPOPT must
    contain the following acknowledgement:
        HSL, a collection of Fortran codes for large-scale scientific
        computation. See http://www.hsl.rl.ac.uk.
******************************************************************************

This is Ipopt version 3.13.2, running with linear solver ma27.

Number of nonzeros in equality constraint Jacobian...:      808
Number of nonzeros in inequality constraint Jacobian.:        0
Number of nonzeros in Lagrangian Hessian.............:      702

Total number of variables............................:      351
                     variables with only lower bounds:      108
                variables with lower and upper bounds:      189
                     variables with only upper bounds:        0
Total number of equality constraints.................:      350
Total number of inequality constraints...............:        0
        inequality constraints with only lower bounds:        0
   inequality constraints with lower and upper bounds:        0
        inequality constraints with only upper bounds:        0

iter    objective    inf_pr   inf_du lg(mu)  ||d||  lg(rg) alpha_du alpha_pr  ls
   0  0.0000000e+00 4.89e-01 8.88e-16  -1.0 0.00e+00    -  0.00e+00 0.00e+00   0
   1  3.0490415e+00 3.96e+00 6.34e+04  -1.0 2.87e+05    -  3.59e-01 3.76e-01h  1
   2  4.1901168e+00 3.49e+00 5.72e+04  -1.0 2.04e+05    -  7.60e-01 9.34e-02h  1
   3  4.3481999e+00 3.45e+00 5.65e+04  -1.0 2.51e+05    -  7.71e-01 1.26e-02h  1
   4  3.2478139e+01 4.10e-01 1.89e+04  -1.0 2.53e+05    -  7.77e-01 9.90e-01h  1
   5  3.9690074e+01 1.37e-02 6.65e+03  -1.0 3.99e+04    -  9.61e-01 9.90e-01h  1
   6  3.9888661e+01 3.42e-04 6.98e+01  -1.0 1.06e+03    -  9.90e-01 9.90e-01h  1
   7  3.9889714e+01 3.32e-04 1.72e+07  -1.0 3.51e+02    -  9.90e-01 3.09e-02f  6
   8  3.9893171e+01 3.21e-04 3.44e+07  -1.0 1.20e+03    -  9.92e-01 3.09e-02f  6
   9  4.0004232e+01 5.43e-04 5.34e+05  -1.0 1.20e+03    -  1.00e+00 9.90e-01h  1
iter    objective    inf_pr   inf_du lg(mu)  ||d||  lg(rg) alpha_du alpha_pr  ls
  10  4.0004046e+01 5.64e-06 1.91e+07  -1.0 1.76e+00    -  1.00e+00 9.90e-01h  1
  11  4.0004040e+01 5.64e-08 1.91e+09  -1.0 5.85e-02    -  1.00e+00 9.90e-01h  1
  12  4.0004040e+01 5.64e-10 1.91e+11  -1.0 5.86e-04    -  1.00e+00 9.90e-01h  1
In iteration 12, 27 Slacks too small, adjusting variable bounds
  13  4.0004040e+01 1.18e-11 1.91e+13  -1.0 5.85e-06    -  1.00e+00 9.90e-01h  1
  14  4.0004040e+01 1.00e-11 1.25e-01  -1.0 2.18e-07    -  1.00e+00 1.00e+00h  1
  15  4.0004033e+01 8.97e-12 1.94e+13  -9.0 1.40e+03    -  9.99e-01 5.35e-05f 15
  16  4.0004027e+01 5.40e-12 1.94e+13  -9.0 1.23e+03    -  9.99e-01 6.09e-05f 15
  17  4.0004020e+01 6.67e-12 1.94e+13  -9.0 1.23e+03    -  1.00e+00 6.10e-05f 15
  18  4.0004019e+01 7.29e-12 1.94e+13  -9.0 1.23e+03    -  1.00e+00 7.63e-06f 18
  19  4.0004019e+01 6.84e-12 1.94e+13  -9.0 1.23e+03    -  1.00e+00 1.91e-06f 20
iter    objective    inf_pr   inf_du lg(mu)  ||d||  lg(rg) alpha_du alpha_pr  ls
  20  3.9891075e+01 6.24e-04 1.08e+05  -9.0 1.23e+03    -  1.00e+00 1.00e+00f  1
  21  3.9890155e+01 5.95e-09 1.67e-04  -9.0 9.52e+00    -  1.00e+00 1.00e+00h  1
  22  3.9890155e+01 6.63e-12 2.91e-11  -9.0 6.15e-05    -  1.00e+00 1.00e+00h  1

Number of Iterations....: 22

                                   (scaled)                 (unscaled)
Objective...............:   3.9890154576352344e+01    3.9890154576352344e+01
Dual infeasibility......:   2.9103830456733704e-11    2.9103830456733704e-11
Constraint violation....:   6.6258110109629342e-12    6.6258110109629342e-12
Complementarity.........:   9.0909090909160569e-10    9.0909090909160569e-10
Overall NLP error.......:   9.3513488339883411e-12    9.0909090909160569e-10


Number of objective function evaluations             = 129
Number of objective gradient evaluations             = 23
Number of equality constraint evaluations            = 129
Number of inequality constraint evaluations          = 0
Number of equality constraint Jacobian evaluations   = 23
Number of inequality constraint Jacobian evaluations = 0
Number of Lagrangian Hessian evaluations             = 22
Total CPU secs in IPOPT (w/o function evaluations)   =      0.047
Total CPU secs in NLP function evaluations           =      0.969

EXIT: Optimal Solution Found.
